param n := 120;
param c := 10000
param : V : p w :=
   0	 480	 470
   1	 264	 254
   2	 286	 276
   3	 403	 393
   4	 281	 271
   5	 346	 336
   6	 364	 354
   7	 292	 282
   8	 374	 364
   9	 376	 366
  10	 272	 262
  11	 382	 372
  12	 428	 418
  13	 275	 265
  14	 327	 317
  15	 452	 442
  16	 267	 257
  17	 311	 301
  18	 473	 463
  19	 262	 252
  20	 295	 285
  21	 457	 447
  22	 264	 254
  23	 309	 299
  24	 483	 473
  25	 260	 250
  26	 287	 277
  27	 422	 412
  28	 282	 272
  29	 326	 316
  30	 361	 351
  31	 263	 253
  32	 406	 396
  33	 425	 415
  34	 299	 289
  35	 306	 296
  36	 413	 403
  37	 278	 268
  38	 339	 329
  39	 391	 381
  40	 305	 295
  41	 334	 324
  42	 407	 397
  43	 309	 299
  44	 314	 304
  45	 509	 499
  46	 260	 250
  47	 261	 251
  48	 467	 457
  49	 265	 255
  50	 298	 288
  51	 447	 437
  52	 288	 278
  53	 295	 285
  54	 364	 354
  55	 308	 298
  56	 358	 348
  57	 422	 412
  58	 275	 265
  59	 333	 323
  60	 429	 419
  61	 287	 277
  62	 314	 304
  63	 481	 471
  64	 262	 252
  65	 287	 277
  66	 444	 434
  67	 289	 279
  68	 297	 287
  69	 364	 354
  70	 266	 256
  71	 400	 390
  72	 486	 476
  73	 265	 255
  74	 279	 269
  75	 490	 480
  76	 264	 254
  77	 276	 266
  78	 428	 418
  79	 264	 254
  80	 338	 328
  81	 379	 369
  82	 290	 280
  83	 361	 351
  84	 421	 411
  85	 275	 265
  86	 334	 324
  87	 442	 432
  88	 288	 278
  89	 300	 290
  90	 416	 406
  91	 283	 273
  92	 331	 321
  93	 449	 439
  94	 284	 274
  95	 297	 287
  96	 403	 393
  97	 271	 261
  98	 356	 346
  99	 454	 444
 100	 265	 255
 101	 311	 301
 102	 509	 499
 103	 260	 250
 104	 261	 251
 105	 449	 439
 106	 271	 261
 107	 310	 300
 108	 384	 374
 109	 316	 306
 110	 330	 320
 111	 477	 467
 112	 267	 257
 113	 286	 276
 114	 420	 410
 115	 284	 274
 116	 326	 316
 117	 415	 405
 118	 304	 294
 119	 311	 301
;

set E :=
   0	   1
   0	   5
   0	  10
   0	  13
   0	  19
   0	  22
   0	  24
   0	  26
   0	  28
   0	  33
   0	  38
   0	  40
   0	  48
   0	  52
   0	  55
   0	  57
   0	  63
   0	  66
   0	  99
   0	 113
   0	 117
   1	   5
   1	   7
   1	  13
   1	  19
   1	  21
   1	  22
   1	  30
   1	  33
   1	  39
   1	  40
   1	  42
   1	  49
   1	  53
   1	  60
   1	  65
   1	  71
   1	  74
   1	  79
   1	  82
   1	  84
   1	  86
   1	  87
   1	  98
   1	 100
   1	 108
   1	 117
   2	  13
   2	  15
   2	  19
   2	  50
   2	  51
   2	  52
   2	  57
   2	  65
   2	  66
   2	  83
   2	  87
   2	  88
   2	  95
   2	  99
   2	 101
   3	   5
   3	  12
   3	  15
   3	  25
   3	  26
   3	  28
   3	  31
   3	  32
   3	  36
   3	  37
   3	  44
   3	  48
   3	  51
   3	  53
   3	  54
   3	  63
   3	  69
   3	  70
   3	  74
   3	  81
   3	  83
   3	  92
   3	  93
   3	  96
   3	  97
   3	  99
   4	   6
   4	  16
   4	  23
   4	  30
   4	  35
   4	  37
   4	  41
   4	  49
   4	  56
   4	  61
   4	  70
   4	  74
   4	  75
   4	  76
   4	  78
   4	  84
   4	  87
   4	  89
   4	  91
   4	 113
   4	 117
   4	 119
   5	   7
   5	  30
   5	  34
   5	  38
   5	  42
   5	  43
   5	  46
   5	  51
   5	  64
   5	  76
   5	  79
   5	  80
   5	  82
   5	  89
   5	  94
   5	  99
   5	 105
   5	 106
   5	 115
   5	 118
   6	  11
   6	  22
   6	  36
   6	  42
   6	  48
   6	  50
   6	  56
   6	  57
   6	  70
   6	  71
   6	  78
   6	  83
   6	  84
   6	  95
   6	  96
   6	  97
   6	 105
   6	 117
   7	   8
   7	  15
   7	  16
   7	  17
   7	  22
   7	  27
   7	  30
   7	  32
   7	  35
   7	  36
   7	  46
   7	  48
   7	  54
   7	  55
   7	  62
   7	  63
   7	  64
   7	  69
   7	  71
   7	  72
   7	  79
   7	  81
   7	  82
   7	  83
   7	  85
   7	  89
   7	 108
   7	 115
   8	  13
   8	  15
   8	  29
   8	  30
   8	  57
   8	  68
   8	  69
   8	  74
   8	  75
   8	  76
   8	  78
   8	  79
   8	  85
   8	  86
   8	  88
   8	  89
   8	  94
   8	  95
   8	  97
   8	 101
   8	 102
   8	 104
   8	 105
   8	 106
   9	  16
   9	  24
   9	  25
   9	  30
   9	  37
   9	  41
   9	  44
   9	  48
   9	  50
   9	  57
   9	  65
   9	  66
   9	  72
   9	  73
   9	  91
   9	  92
   9	  94
   9	  95
   9	  96
   9	  99
   9	 106
   9	 112
   9	 117
  10	  12
  10	  14
  10	  25
  10	  26
  10	  27
  10	  28
  10	  34
  10	  36
  10	  47
  10	  49
  10	  60
  10	  62
  10	  64
  10	  65
  10	  66
  10	  70
  10	  72
  10	  77
  10	  80
  10	  88
  10	  90
  10	  92
  10	 105
  10	 111
  11	  13
  11	  22
  11	  30
  11	  44
  11	  46
  11	  49
  11	  53
  11	  55
  11	  62
  11	  67
  11	  68
  11	  70
  11	  80
  11	  84
  11	  89
  11	  94
  11	  95
  11	  99
  11	 103
  11	 107
  11	 112
  11	 118
  12	  14
  12	  19
  12	  22
  12	  30
  12	  40
  12	  45
  12	  48
  12	  49
  12	  54
  12	  62
  12	  69
  12	  74
  12	  77
  12	  78
  12	  79
  12	 103
  12	 105
  12	 109
  13	  16
  13	  24
  13	  36
  13	  39
  13	  41
  13	  45
  13	  47
  13	  62
  13	  63
  13	  65
  13	  73
  13	  82
  13	  85
  13	  87
  13	  88
  13	 112
  13	 113
  14	  17
  14	  20
  14	  25
  14	  28
  14	  29
  14	  36
  14	  42
  14	  43
  14	  46
  14	  47
  14	  48
  14	  57
  14	  62
  14	  63
  14	  67
  14	  78
  14	  86
  14	  96
  14	 106
  14	 108
  14	 115
  14	 117
  14	 118
  14	 119
  15	  26
  15	  29
  15	  32
  15	  44
  15	  46
  15	  54
  15	  57
  15	  58
  15	  60
  15	  67
  15	  70
  15	  71
  15	  72
  15	  73
  15	  74
  15	  80
  15	  84
  15	  87
  15	  89
  15	  92
  15	 103
  15	 109
  15	 114
  15	 119
  16	  23
  16	  34
  16	  39
  16	  51
  16	  63
  16	  74
  16	  76
  16	  78
  16	  83
  16	  89
  16	  90
  16	 100
  16	 104
  16	 106
  16	 107
  16	 112
  16	 117
  17	  25
  17	  27
  17	  43
  17	  47
  17	  49
  17	  52
  17	  53
  17	  56
  17	  58
  17	  64
  17	  71
  17	  77
  17	  79
  17	  80
  17	  87
  17	  88
  17	  95
  17	 100
  17	 102
  17	 106
  17	 111
  18	  29
  18	  32
  18	  34
  18	  42
  18	  43
  18	  50
  18	  55
  18	  56
  18	  57
  18	  66
  18	  67
  18	  74
  18	  76
  18	  82
  18	  83
  18	  88
  18	  89
  18	  97
  18	  99
  18	 100
  18	 103
  18	 111
  18	 118
  19	  23
  19	  28
  19	  32
  19	  34
  19	  38
  19	  40
  19	  43
  19	  54
  19	  70
  19	  77
  19	  81
  19	  85
  19	  90
  19	 102
  19	 108
  19	 114
  19	 118
  20	  22
  20	  32
  20	  34
  20	  45
  20	  47
  20	  55
  20	  56
  20	  62
  20	  65
  20	  66
  20	  78
  20	  79
  20	  80
  20	  81
  20	  83
  20	  85
  20	  86
  20	  94
  20	  99
  20	 101
  20	 103
  20	 105
  21	  28
  21	  29
  21	  30
  21	  35
  21	  37
  21	  39
  21	  41
  21	  42
  21	  44
  21	  45
  21	  50
  21	  52
  21	  65
  21	  71
  21	  74
  21	  76
  21	  78
  21	  81
  21	  88
  21	 102
  21	 103
  21	 106
  21	 107
  21	 116
  21	 117
  21	 119
  22	  27
  22	  38
  22	  44
  22	  45
  22	  46
  22	  53
  22	  54
  22	  56
  22	  72
  22	  73
  22	  74
  22	  77
  22	  78
  22	  83
  22	  84
  22	  85
  22	  94
  22	 105
  22	 118
  23	  24
  23	  28
  23	  30
  23	  35
  23	  40
  23	  44
  23	  45
  23	  60
  23	  62
  23	  68
  23	  70
  23	  75
  23	  92
  23	  97
  23	  99
  23	 109
  23	 111
  23	 119
  24	  25
  24	  27
  24	  30
  24	  31
  24	  32
  24	  35
  24	  39
  24	  45
  24	  50
  24	  52
  24	  55
  24	  68
  24	  71
  24	  72
  24	  76
  24	  80
  24	  84
  24	  90
  24	  92
  24	  95
  24	  96
  24	  98
  24	 111
  25	  27
  25	  30
  25	  33
  25	  38
  25	  40
  25	  41
  25	  45
  25	  49
  25	  50
  25	  52
  25	  56
  25	  57
  25	  58
  25	  61
  25	  65
  25	  74
  25	  78
  25	  79
  25	  86
  25	  92
  25	  99
  25	 108
  25	 110
  26	  28
  26	  29
  26	  32
  26	  39
  26	  42
  26	  43
  26	  51
  26	  52
  26	  56
  26	  59
  26	  63
  26	  64
  26	  65
  26	  67
  26	  68
  26	  69
  26	  70
  26	  73
  26	  77
  26	  78
  26	  80
  26	  83
  26	  95
  26	  98
  26	 111
  26	 113
  26	 114
  26	 116
  27	  29
  27	  31
  27	  42
  27	  45
  27	  51
  27	  52
  27	  56
  27	  63
  27	  64
  27	  67
  27	  74
  27	  77
  27	  79
  27	  85
  27	  90
  27	  99
  27	 100
  27	 103
  27	 115
  28	  30
  28	  36
  28	  37
  28	  39
  28	  40
  28	  47
  28	  56
  28	  57
  28	  70
  28	  75
  28	  77
  28	  85
  28	  86
  28	  87
  28	  90
  28	 101
  28	 112
  28	 113
  28	 117
  29	  30
  29	  36
  29	  42
  29	  50
  29	  52
  29	  53
  29	  54
  29	  59
  29	  73
  29	  82
  29	  87
  29	  94
  29	  96
  29	 101
  29	 103
  29	 106
  29	 114
  29	 115
  29	 119
  30	  35
  30	  58
  30	  65
  30	  71
  30	  73
  30	  74
  30	  77
  30	  80
  30	  87
  30	 101
  30	 103
  30	 108
  30	 111
  30	 112
  30	 114
  30	 119
  31	  38
  31	  46
  31	  52
  31	  53
  31	  54
  31	  62
  31	  63
  31	  66
  31	  70
  31	  75
  31	  77
  31	  91
  31	  95
  31	 112
  32	  34
  32	  35
  32	  37
  32	  43
  32	  44
  32	  51
  32	  58
  32	  71
  32	  74
  32	  75
  32	  88
  32	  89
  32	  91
  32	 114
  32	 118
  33	  39
  33	  43
  33	  45
  33	  53
  33	  59
  33	  60
  33	  64
  33	  67
  33	  71
  33	  72
  33	  79
  33	  82
  33	  83
  33	  84
  33	  86
  33	  92
  33	  95
  33	  98
  33	 107
  33	 108
  34	  35
  34	  36
  34	  37
  34	  44
  34	  48
  34	  54
  34	  56
  34	  58
  34	  63
  34	  67
  34	  68
  34	  82
  34	  93
  34	  96
  34	 100
  34	 101
  34	 103
  34	 107
  34	 109
  34	 111
  34	 114
  34	 115
  34	 116
  34	 118
  34	 119
  35	  41
  35	  48
  35	  49
  35	  53
  35	  58
  35	  61
  35	  62
  35	  67
  35	  73
  35	  74
  35	  75
  35	  79
  35	  81
  35	  87
  35	 101
  35	 104
  35	 115
  35	 116
  35	 119
  36	  42
  36	  45
  36	  48
  36	  53
  36	  57
  36	  59
  36	  60
  36	  68
  36	  69
  36	  81
  36	  83
  36	  84
  36	  91
  36	  93
  36	  98
  36	 102
  36	 106
  36	 108
  36	 117
  36	 118
  36	 119
  37	  39
  37	  45
  37	  58
  37	  63
  37	  64
  37	  67
  37	  68
  37	  77
  37	  79
  37	  90
  37	  92
  37	  94
  37	 103
  37	 104
  37	 112
  38	  39
  38	  42
  38	  45
  38	  51
  38	  55
  38	  58
  38	  61
  38	  63
  38	  64
  38	  66
  38	  67
  38	  82
  38	  90
  38	  98
  38	 102
  38	 103
  38	 105
  38	 106
  38	 115
  38	 118
  39	  45
  39	  48
  39	  55
  39	  60
  39	  77
  39	  88
  39	  91
  39	  93
  39	  95
  39	  96
  39	 104
  39	 109
  39	 117
  39	 118
  40	  42
  40	  43
  40	  48
  40	  57
  40	  60
  40	  62
  40	  69
  40	  75
  40	  76
  40	  78
  40	  86
  40	  91
  40	  96
  40	  99
  40	 102
  40	 106
  40	 107
  40	 110
  40	 116
  41	  43
  41	  46
  41	  47
  41	  49
  41	  52
  41	  56
  41	  59
  41	  67
  41	  68
  41	  80
  41	  84
  41	  89
  41	  93
  41	  94
  41	  99
  41	 105
  41	 106
  41	 107
  41	 109
  41	 112
  41	 118
  42	  44
  42	  66
  42	  76
  42	  80
  42	  84
  42	  90
  42	  99
  42	 102
  42	 103
  42	 111
  42	 114
  42	 119
  43	  44
  43	  47
  43	  51
  43	  59
  43	  64
  43	  67
  43	  72
  43	  74
  43	  77
  43	  80
  43	  81
  43	  90
  43	  91
  43	  93
  43	 103
  43	 105
  43	 113
  43	 116
  44	  45
  44	  61
  44	  63
  44	  66
  44	  68
  44	  70
  44	  74
  44	  78
  44	  80
  44	  82
  44	  91
  44	  92
  44	  95
  44	  99
  44	 107
  44	 112
  44	 114
  44	 115
  44	 119
  45	  46
  45	  47
  45	  48
  45	  52
  45	  58
  45	  72
  45	  87
  45	  88
  45	  99
  45	 103
  45	 106
  45	 108
  45	 116
  45	 118
  46	  55
  46	  66
  46	  67
  46	  69
  46	  74
  46	  77
  46	  82
  46	  94
  46	  95
  46	  97
  46	 104
  46	 111
  46	 112
  46	 116
  47	  48
  47	  54
  47	  56
  47	  68
  47	  71
  47	  72
  47	  76
  47	  78
  47	  80
  47	  85
  47	  97
  47	 108
  47	 109
  48	  50
  48	  51
  48	  61
  48	  72
  48	  74
  48	  79
  48	  83
  48	  88
  48	  92
  48	 106
  48	 109
  49	  55
  49	  56
  49	  61
  49	  63
  49	  82
  49	  88
  49	  90
  49	  95
  49	  97
  49	 100
  49	 102
  49	 105
  49	 108
  49	 109
  49	 116
  50	  53
  50	  55
  50	  58
  50	  59
  50	  61
  50	  64
  50	  65
  50	  73
  50	  74
  50	  80
  50	  81
  50	  93
  50	 102
  50	 105
  50	 108
  50	 112
  50	 113
  51	  55
  51	  58
  51	  62
  51	  65
  51	  68
  51	  70
  51	  73
  51	  80
  51	  81
  51	  83
  51	  97
  51	 113
  51	 118
  51	 119
  52	  65
  52	  69
  52	  70
  52	  74
  52	  81
  52	  85
  52	  88
  52	 113
  52	 114
  53	  55
  53	  60
  53	  68
  53	  76
  53	  77
  53	  86
  53	  98
  53	 103
  53	 118
  54	  57
  54	  59
  54	  68
  54	  76
  54	  80
  54	  82
  54	  89
  54	  91
  54	  94
  54	  96
  54	 103
  54	 115
  54	 116
  55	  59
  55	  68
  55	  71
  55	  75
  55	  86
  55	  95
  55	 101
  55	 102
  55	 105
  55	 108
  55	 109
  55	 116
  55	 117
  56	  60
  56	  61
  56	  63
  56	  67
  56	  68
  56	  69
  56	  76
  56	  84
  56	  88
  56	  92
  56	  94
  56	  95
  56	  98
  56	 108
  56	 115
  56	 119
  57	  58
  57	  76
  57	  87
  57	  91
  57	  99
  57	 101
  57	 105
  57	 107
  57	 108
  57	 110
  57	 119
  58	  59
  58	  63
  58	  65
  58	  69
  58	  76
  58	  90
  58	 104
  58	 113
  59	  65
  59	  69
  59	  78
  59	  79
  59	  80
  59	  81
  59	  82
  59	  84
  59	  86
  59	  91
  59	  93
  59	 104
  59	 105
  59	 116
  60	  65
  60	  71
  60	  72
  60	  74
  60	  77
  60	  78
  60	  79
  60	  81
  60	  82
  60	  92
  60	  94
  60	  99
  60	 102
  60	 105
  60	 108
  61	  69
  61	  73
  61	  75
  61	  97
  61	 109
  62	  67
  62	  76
  62	  84
  62	  85
  62	  89
  62	  92
  62	  94
  62	 100
  62	 101
  62	 103
  62	 104
  62	 107
  62	 117
  62	 119
  63	  65
  63	  66
  63	  71
  63	  72
  63	  78
  63	  81
  63	  82
  63	  83
  63	  88
  63	  90
  63	  96
  63	 105
  63	 112
  63	 115
  63	 118
  64	  74
  64	  86
  64	  93
  64	  95
  64	 103
  64	 108
  64	 109
  64	 114
  65	  70
  65	  76
  65	  86
  65	  88
  65	  92
  65	 101
  65	 104
  65	 108
  65	 111
  66	  77
  66	  82
  66	  84
  66	  86
  66	  88
  66	  89
  66	  97
  66	 101
  66	 102
  66	 104
  66	 107
  66	 116
  67	  71
  67	  76
  67	  77
  67	  78
  67	  82
  67	  98
  67	  99
  67	 106
  68	  73
  68	  77
  68	  79
  68	  82
  68	  91
  68	  92
  68	  93
  68	  94
  68	  97
  68	  99
  68	 106
  68	 110
  68	 114
  69	  72
  69	  75
  69	  83
  69	  84
  69	  91
  69	  95
  69	  96
  69	  99
  69	 101
  69	 104
  69	 107
  69	 112
  69	 114
  70	  71
  70	  72
  70	  83
  70	  85
  70	  87
  70	  93
  70	  94
  70	  95
  70	  96
  70	 100
  70	 102
  70	 107
  70	 108
  70	 110
  70	 112
  70	 114
  70	 116
  70	 117
  71	  74
  71	  76
  71	  79
  71	  81
  71	  84
  71	  90
  71	  97
  71	 107
  71	 114
  72	  74
  72	  78
  72	  79
  72	  83
  72	  91
  72	  95
  72	 102
  72	 104
  72	 109
  72	 112
  72	 116
  73	  74
  73	  75
  73	  76
  73	  80
  73	  82
  73	  86
  73	  87
  73	  93
  73	 105
  73	 106
  73	 110
  73	 111
  73	 112
  74	  84
  74	  85
  74	  88
  74	  92
  74	 106
  74	 118
  75	  77
  75	  78
  75	  85
  75	  86
  75	  94
  75	  97
  75	 109
  75	 110
  75	 111
  75	 116
  76	  85
  76	  89
  76	  94
  76	  98
  76	 113
  76	 115
  77	  86
  77	  87
  77	  90
  77	  92
  77	 101
  77	 104
  77	 119
  78	 116
  79	  88
  79	 101
  79	 104
  79	 106
  79	 116
  80	  88
  80	  93
  80	  96
  80	 100
  80	 101
  80	 103
  80	 115
  81	  82
  81	  83
  81	  91
  81	  94
  81	 104
  81	 105
  81	 108
  81	 109
  81	 112
  81	 116
  82	  89
  82	  92
  82	 102
  82	 105
  82	 106
  82	 112
  82	 115
  82	 119
  83	  95
  83	  96
  83	  98
  83	 103
  83	 107
  83	 110
  83	 111
  83	 112
  83	 115
  83	 119
  84	  88
  84	  95
  84	  96
  84	  97
  84	 104
  84	 110
  84	 113
  85	  87
  85	  88
  85	  91
  85	  92
  85	  94
  85	 113
  85	 115
  85	 116
  86	  94
  86	 103
  86	 104
  86	 105
  86	 114
  87	  95
  87	  96
  87	 100
  87	 107
  87	 109
  87	 110
  87	 118
  88	  90
  88	  94
  88	  96
  88	 101
  88	 105
  88	 107
  88	 115
  88	 116
  88	 117
  88	 118
  89	  91
  89	 102
  89	 106
  90	  92
  90	  97
  90	 105
  90	 116
  91	  92
  91	  94
  91	 110
  91	 116
  91	 118
  92	  94
  92	  98
  92	 108
  92	 110
  92	 113
  93	  96
  93	 109
  94	 113
  95	  96
  95	 107
  95	 114
  95	 118
  95	 119
  96	 109
  97	 109
  97	 110
  98	 100
  98	 102
  98	 113
  98	 114
  99	 102
  99	 103
  99	 115
  99	 118
 100	 106
 100	 107
 100	 108
 100	 118
 101	 119
 102	 108
 102	 112
 103	 110
 103	 112
 104	 106
 104	 110
 104	 117
 104	 119
 107	 112
 108	 109
 108	 112
 108	 115
 109	 111
 109	 113
 109	 114
 109	 115
 111	 115
 111	 119
 112	 113
 112	 114
 113	 115
 115	 117
 116	 117
 116	 118
;
